language ESSENCE' 1.0

letting sched_ExplicitR18_PartitionOccurrence_FirstIndex be
        [[1, 3; int(1..2)], [1, 2; int(1..2)], [1, 2; int(1..2)]; int(1..3)]
$ Visualisation for sched_ExplicitR18_PartitionOccurrence_FirstIndex
$ 1 3
$ 1 2
$ 1 2

letting sched_ExplicitR18_PartitionOccurrence_NumParts be [2, 2, 2; int(1..3)]
letting sched_ExplicitR18_PartitionOccurrence_PartSizes be
        [[2, 2; int(1..2)], [2, 2; int(1..2)], [2, 2; int(1..2)]; int(1..3)]
$ Visualisation for sched_ExplicitR18_PartitionOccurrence_PartSizes
$ 2 2
$ 2 2
$ 2 2

letting sched_ExplicitR18_PartitionOccurrence_WhichPart be
        [[1, 1, 2, 2; int(1..4)], [1, 2, 1, 2; int(1..4)], [1, 2, 2, 1; int(1..4)]; int(1..3)]
$ Visualisation for sched_ExplicitR18_PartitionOccurrence_WhichPart
$ 1 1 2 2
$ 1 2 1 2
$ 1 2 2 1

